100 100 100
50
69 75 44
85 92 19
25 3 8
79 83 92
96 56 80
48 38 36
66 95 33
86 88 37
97 31 82
50 69 57
85 65 50
87 89 3
73 92 22
81 79 33
93 91 12
6 3 43
25 100 80
90 70 22
77 81 16
8 20 23
98 60 85
47 45 14
99 98 10
72 75 8
70 90 5
87 35 79
69 86 38
90 33 99
88 6 89
95 92 50
76 92 41
81 100 19
69 69 20
68 67 45
76 68 19
88 87 8
4 8 3
78 93 43
97 20 83
91 75 43
92 92 35
80 71 1
80 84 44
90 79 34
66 73 46
67 8 78
74 21 71
82 68 4
66 66 27
6 13 4
